
Gurobi 9.5.2 (win64) logging started Mon Mar 27 20:26:18 2023

Set parameter LogFile to value "2023-03-27_20hr-25min-09sec/Nodes20_Arcs25_LocNodes15/Formulation-2Instance-5.log"
Set parameter TimeLimit to value 600
Set parameter IntFeasTol to value 1e-09
Set parameter DualReductions to value 0
Set parameter NonConvex to value 2
Gurobi Optimizer version 9.5.2 build v9.5.2rc0 (win64)
Thread count: 4 physical cores, 8 logical processors, using up to 8 threads
Optimize a model with 81 rows, 140 columns and 290 nonzeros
Model fingerprint: 0xfb2d5922
Model has 45 quadratic objective terms
Model has 45 SOS constraints
Variable types: 125 continuous, 15 integer (15 binary)
Coefficient statistics:
  Matrix range     [2e-02, 2e+02]
  Objective range  [2e-01, 1e+03]
  QObjective range [5e-02, 8e+00]
  Bounds range     [1e+00, 1e+00]
  RHS range        [2e-01, 1e+03]
Presolve removed 19 rows and 27 columns
Presolve time: 0.00s
Presolved: 62 rows, 113 columns, 228 nonzeros
Presolved model has 33 SOS constraint(s)
Presolved model has 33 quadratic objective terms
Variable types: 98 continuous, 15 integer (15 binary)

Root relaxation: objective 5.096850e+05, 142 iterations, 0.00 seconds (0.00 work units)

    Nodes    |    Current Node    |     Objective Bounds      |     Work
 Expl Unexpl |  Obj  Depth IntInf | Incumbent    BestBd   Gap | It/Node Time

     0     0 509684.983    0    7          - 509684.983      -     -    0s
H    0     0                    508718.75125 509684.983  0.19%     -    0s
H    0     0                    508929.67319 509684.983  0.15%     -    0s
H    0     0                    509070.60996 509684.983  0.12%     -    0s
     0     0 509411.949    0    7 509070.610 509411.949  0.07%     -    0s
H    0     0                    509104.84526 509411.949  0.06%     -    0s
     0     0 509290.078    0    7 509104.845 509290.078  0.04%     -    0s
     0     0 509222.217    0    7 509104.845 509222.217  0.02%     -    0s
     0     0 509209.912    0    6 509104.845 509209.912  0.02%     -    0s
     0     0 509209.912    0    6 509104.845 509209.912  0.02%     -    0s
     0     0 509209.912    0    8 509104.845 509209.912  0.02%     -    0s
     0     0 509209.912    0    6 509104.845 509209.912  0.02%     -    0s
     0     0 509209.912    0    6 509104.845 509209.912  0.02%     -    0s
     0     0 509209.912    0    8 509104.845 509209.912  0.02%     -    0s

Cutting planes:
  Cover: 1
  Implied bound: 1
  MIR: 3
  Flow cover: 3

Explored 1 nodes (267 simplex iterations) in 0.10 seconds (0.01 work units)
Thread count was 8 (of 8 available processors)

Solution count 4: 509105 509071 508930 508719 

Optimal solution found (tolerance 1.00e-04)
Best objective 5.091048452553e+05, best bound 5.091314524394e+05, gap 0.0052%

User-callback calls 291, time in user-callback 0.01 sec
